(set-logic UF)
(declare-sort S1 0)
(declare-sort S2 0)
(declare-sort S3 0)
(declare-sort S4 0)
(declare-sort S5 0)
(declare-sort S6 0)
(declare-sort S7 0)
(declare-sort S8 0)
(declare-sort S9 0)
(declare-sort S10 0)
(declare-sort S11 0)
(declare-sort S12 0)
(declare-sort S13 0)
(declare-sort S14 0)
(declare-sort S15 0)
(declare-sort S16 0)
(declare-sort S17 0)
(declare-sort S18 0)
(declare-sort S19 0)
(declare-sort S20 0)
(declare-sort S21 0)
(declare-sort S22 0)
(declare-sort S23 0)
(declare-sort S24 0)
(declare-sort S25 0)
(declare-sort S26 0)
(declare-sort S27 0)
(declare-sort S28 0)
(declare-sort S29 0)
(declare-sort S30 0)
(declare-sort S31 0)
(declare-sort S32 0)
(declare-sort S33 0)
(declare-sort S34 0)
(declare-sort S35 0)
(declare-sort S36 0)
(declare-sort S37 0)
(declare-sort S38 0)
(declare-sort S39 0)
(declare-sort S40 0)
(declare-sort S41 0)
(declare-sort S42 0)
(declare-sort S43 0)
(declare-sort S44 0)
(declare-sort S45 0)
(declare-sort S46 0)
(declare-sort S47 0)
(declare-sort S48 0)
(declare-sort S49 0)
(declare-sort S50 0)
(declare-sort S51 0)
(declare-sort S52 0)
(declare-sort S53 0)
(declare-sort S54 0)
(declare-sort S55 0)
(declare-sort S56 0)
(declare-sort S57 0)
(declare-sort S58 0)
(declare-sort S59 0)
(declare-sort S60 0)
(declare-sort S61 0)
(declare-sort S62 0)
(declare-sort S63 0)
(declare-sort S64 0)
(declare-sort S65 0)
(declare-sort S66 0)
(declare-sort S67 0)
(declare-sort S68 0)
(declare-sort S69 0)
(declare-sort S70 0)
(declare-sort S71 0)
(declare-sort S72 0)
(declare-sort S73 0)
(declare-sort S74 0)
(declare-sort S75 0)
(declare-sort S76 0)
(declare-sort S77 0)
(declare-sort S78 0)
(declare-sort S79 0)
(declare-sort S80 0)
(declare-sort S81 0)
(declare-sort S82 0)
(declare-sort S83 0)
(declare-sort S84 0)
(declare-sort S85 0)
(declare-sort S86 0)
(declare-sort S87 0)
(declare-sort S88 0)
(declare-sort S89 0)
(declare-sort S90 0)
(declare-sort S91 0)
(declare-sort S92 0)
(declare-sort S93 0)
(declare-sort S94 0)
(declare-sort S95 0)
(declare-sort S96 0)
(declare-sort S97 0)
(declare-sort S98 0)
(declare-sort S99 0)
(declare-sort S100 0)
(declare-sort S101 0)
(declare-sort S102 0)
(declare-sort S103 0)
(declare-sort S104 0)
(declare-sort S105 0)
(declare-sort S106 0)
(declare-sort S107 0)
(declare-sort S108 0)
(declare-sort S109 0)
(declare-sort S110 0)
(declare-sort S111 0)
(declare-sort S112 0)
(declare-sort S113 0)
(declare-sort S114 0)
(declare-sort S115 0)
(declare-sort S116 0)
(declare-sort S117 0)
(declare-sort S118 0)
(declare-sort S119 0)
(declare-sort S120 0)
(declare-sort S121 0)
(declare-sort S122 0)
(declare-sort S123 0)
(declare-sort S124 0)
(declare-sort S125 0)
(declare-sort S126 0)
(declare-sort S127 0)
(declare-sort S128 0)
(declare-sort S129 0)
(declare-sort S130 0)
(declare-sort S131 0)
(declare-sort S132 0)
(declare-sort S133 0)
(declare-sort S134 0)
(declare-sort S135 0)
(declare-sort S136 0)
(declare-sort S137 0)
(declare-fun f1 () S1)
(declare-fun f2 () S1)
(declare-fun f3 (S3 S2) S1)
(declare-fun f4 () S3)
(declare-fun f5 () S3)
(declare-fun f6 (S4 S2) S2)
(declare-fun f7 (S5 S2) S4)
(declare-fun f8 () S5)
(declare-fun f9 (S6 S7) S2)
(declare-fun f10 () S6)
(declare-fun f11 () S7)
(declare-fun f12 (S10 S9) S9)
(declare-fun f13 (S11 S8) S10)
(declare-fun f14 () S11)
(declare-fun f15 (S12 S9) S10)
(declare-fun f16 () S12)
(declare-fun f17 () S11)
(declare-fun f18 () S9)
(declare-fun f19 (S15 S14) S14)
(declare-fun f20 (S16 S13) S15)
(declare-fun f21 () S16)
(declare-fun f22 (S17 S14) S15)
(declare-fun f23 () S17)
(declare-fun f24 () S16)
(declare-fun f25 () S14)
(declare-fun f26 (S19 S18) S18)
(declare-fun f27 (S20 S9) S19)
(declare-fun f28 () S20)
(declare-fun f29 (S21 S18) S19)
(declare-fun f30 () S21)
(declare-fun f31 () S20)
(declare-fun f32 () S18)
(declare-fun f33 (S23 S22) S22)
(declare-fun f34 (S24 S2) S23)
(declare-fun f35 () S24)
(declare-fun f36 (S25 S22) S23)
(declare-fun f37 () S25)
(declare-fun f38 () S24)
(declare-fun f39 () S22)
(declare-fun f40 (S26 S8) S9)
(declare-fun f41 (S27 S9) S26)
(declare-fun f42 () S27)
(declare-fun f43 (S28 S13) S14)
(declare-fun f44 (S29 S14) S28)
(declare-fun f45 () S29)
(declare-fun f46 (S30 S9) S18)
(declare-fun f47 (S31 S18) S30)
(declare-fun f48 () S31)
(declare-fun f49 (S32 S2) S22)
(declare-fun f50 (S33 S22) S32)
(declare-fun f51 () S33)
(declare-fun f52 (S34 S8) S1)
(declare-fun f53 (S35 S9) S34)
(declare-fun f54 () S35)
(declare-fun f55 (S36 S9) S8)
(declare-fun f56 () S36)
(declare-fun f57 (S37 S13) S1)
(declare-fun f58 (S38 S14) S37)
(declare-fun f59 () S38)
(declare-fun f60 (S39 S14) S13)
(declare-fun f61 () S39)
(declare-fun f62 (S40 S9) S1)
(declare-fun f63 (S41 S18) S40)
(declare-fun f64 () S41)
(declare-fun f65 (S42 S18) S9)
(declare-fun f66 () S42)
(declare-fun f67 (S43 S22) S3)
(declare-fun f68 () S43)
(declare-fun f69 (S44 S22) S2)
(declare-fun f70 () S44)
(declare-fun f71 (S46 S45) S3)
(declare-fun f72 () S46)
(declare-fun f73 (S47 S2) S37)
(declare-fun f74 (S48 S45) S47)
(declare-fun f75 () S48)
(declare-fun f76 (S50 S13) S13)
(declare-fun f77 (S49 S13) S50)
(declare-fun f78 (S51 S49) S49)
(declare-fun f79 () S51)
(declare-fun f80 (S52 S5) S5)
(declare-fun f81 () S52)
(declare-fun f82 (S53 S3) S3)
(declare-fun f83 (S54 S3) S53)
(declare-fun f84 () S54)
(declare-fun f85 (S55 S14) S16)
(declare-fun f86 () S55)
(declare-fun f87 (S56 S22) S24)
(declare-fun f88 () S56)
(declare-fun f89 (S57 S40) S40)
(declare-fun f90 (S58 S34) S57)
(declare-fun f91 () S58)
(declare-fun f92 (S59 S34) S1)
(declare-fun f93 (S60 S8) S59)
(declare-fun f94 () S60)
(declare-fun f95 (S61 S40) S1)
(declare-fun f96 (S62 S9) S61)
(declare-fun f97 () S62)
(declare-fun f98 (S63 S14) S1)
(declare-fun f99 (S64 S63) S63)
(declare-fun f100 (S65 S37) S64)
(declare-fun f101 () S65)
(declare-fun f102 (S66 S37) S1)
(declare-fun f103 (S67 S13) S66)
(declare-fun f104 () S67)
(declare-fun f105 (S68 S63) S1)
(declare-fun f106 (S69 S14) S68)
(declare-fun f107 () S69)
(declare-fun f108 (S70 S18) S1)
(declare-fun f109 (S71 S70) S70)
(declare-fun f110 (S72 S40) S71)
(declare-fun f111 () S72)
(declare-fun f112 (S73 S70) S1)
(declare-fun f113 (S74 S18) S73)
(declare-fun f114 () S74)
(declare-fun f115 (S75 S22) S1)
(declare-fun f116 (S76 S75) S75)
(declare-fun f117 (S77 S3) S76)
(declare-fun f118 () S77)
(declare-fun f119 (S78 S3) S1)
(declare-fun f120 (S79 S2) S78)
(declare-fun f121 () S79)
(declare-fun f122 (S80 S75) S1)
(declare-fun f123 (S81 S22) S80)
(declare-fun f124 () S81)
(declare-fun f125 (S82 S13) S63)
(declare-fun f126 (S83 S22) S82)
(declare-fun f127 (S84 S2) S83)
(declare-fun f128 (S85 S45) S84)
(declare-fun f129 () S85)
(declare-fun f130 (S86 S22) S63)
(declare-fun f131 (S87 S45) S86)
(declare-fun f132 () S87)
(declare-fun f133 (S88 S3) S75)
(declare-fun f134 () S88)
(declare-fun f135 () S22)
(declare-fun f136 (S89 S40) S70)
(declare-fun f137 () S89)
(declare-fun f138 (S90 S34) S40)
(declare-fun f139 () S90)
(declare-fun f140 (S91 S37) S63)
(declare-fun f141 () S91)
(declare-fun f142 (S92 S2) S44)
(declare-fun f143 (S93 S5) S92)
(declare-fun f144 () S93)
(declare-fun f145 () S21)
(declare-fun f146 () S12)
(declare-fun f147 () S17)
(declare-fun f148 () S25)
(declare-fun f149 (S94 S82) S63)
(declare-fun f150 (S95 S1) S94)
(declare-fun f151 () S95)
(declare-fun f152 () S20)
(declare-fun f153 () S11)
(declare-fun f154 () S16)
(declare-fun f155 () S24)
(declare-fun f156 () S4)
(declare-fun f157 () S70)
(declare-fun f158 () S40)
(declare-fun f159 () S63)
(declare-fun f160 () S75)
(declare-fun f161 () S15)
(declare-fun f162 (S96 S16) S15)
(declare-fun f163 (S97 S14) S96)
(declare-fun f164 () S97)
(declare-fun f165 () S23)
(declare-fun f166 (S98 S24) S23)
(declare-fun f167 (S99 S22) S98)
(declare-fun f168 () S99)
(declare-fun f169 () S19)
(declare-fun f170 (S100 S20) S19)
(declare-fun f171 (S101 S18) S100)
(declare-fun f172 () S101)
(declare-fun f173 () S10)
(declare-fun f174 (S102 S11) S10)
(declare-fun f175 (S103 S9) S102)
(declare-fun f176 () S103)
(declare-fun f177 (S104 S18) S70)
(declare-fun f178 () S104)
(declare-fun f179 (S105 S9) S40)
(declare-fun f180 () S105)
(declare-fun f181 (S106 S14) S63)
(declare-fun f182 () S106)
(declare-fun f183 (S107 S22) S75)
(declare-fun f184 () S107)
(declare-fun f185 () S15)
(declare-fun f186 () S23)
(declare-fun f187 () S19)
(declare-fun f188 () S10)
(declare-fun f189 () S15)
(declare-fun f190 () S23)
(declare-fun f191 () S10)
(declare-fun f192 () S19)
(declare-fun f193 () S39)
(declare-fun f194 () S44)
(declare-fun f195 () S42)
(declare-fun f196 () S36)
(declare-fun f197 (S108 S7) S28)
(declare-fun f198 () S108)
(declare-fun f199 (S109 S7) S32)
(declare-fun f200 () S109)
(declare-fun f201 (S110 S7) S30)
(declare-fun f202 () S110)
(declare-fun f203 (S111 S7) S26)
(declare-fun f204 () S111)
(declare-fun f205 () S15)
(declare-fun f206 () S23)
(declare-fun f207 () S19)
(declare-fun f208 () S10)
(declare-fun f209 (S45 S7) S13)
(declare-fun f210 (S112 S31) S21)
(declare-fun f211 () S112)
(declare-fun f212 (S113 S27) S12)
(declare-fun f213 () S113)
(declare-fun f214 (S114 S29) S17)
(declare-fun f215 () S114)
(declare-fun f216 (S115 S33) S25)
(declare-fun f217 () S115)
(declare-fun f218 () S49)
(declare-fun f219 (S116 S22) S4)
(declare-fun f220 (S117 S5) S116)
(declare-fun f221 () S117)
(declare-fun f222 (S118 S13) S39)
(declare-fun f223 (S119 S49) S118)
(declare-fun f224 () S119)
(declare-fun f225 (S120 S14) S50)
(declare-fun f226 (S121 S49) S120)
(declare-fun f227 () S121)
(declare-fun f228 () S58)
(declare-fun f229 () S57)
(declare-fun f230 () S72)
(declare-fun f231 () S71)
(declare-fun f232 () S65)
(declare-fun f233 () S64)
(declare-fun f234 () S77)
(declare-fun f235 () S76)
(declare-fun f236 (S123 S122) S106)
(declare-fun f237 () S123)
(declare-fun f238 (S122 S13) S37)
(declare-fun f239 (S125 S124) S107)
(declare-fun f240 () S125)
(declare-fun f241 (S124 S2) S3)
(declare-fun f242 (S127 S126) S105)
(declare-fun f243 () S127)
(declare-fun f244 (S126 S8) S34)
(declare-fun f245 (S128 S105) S104)
(declare-fun f246 () S128)
(declare-fun f247 () S45)
(declare-fun f248 (S129 S40) S19)
(declare-fun f249 () S129)
(declare-fun f250 (S130 S34) S10)
(declare-fun f251 () S130)
(declare-fun f252 (S131 S37) S15)
(declare-fun f253 () S131)
(declare-fun f254 (S132 S3) S23)
(declare-fun f255 () S132)
(declare-fun f256 () S131)
(declare-fun f257 () S132)
(declare-fun f258 () S130)
(declare-fun f259 () S129)
(declare-fun f260 () S70)
(declare-fun f261 () S40)
(declare-fun f262 () S63)
(declare-fun f263 () S75)
(declare-fun f264 (S133 S2) S6)
(declare-fun f265 (S134 S2) S133)
(declare-fun f266 () S134)
(declare-fun f267 () S7)
(declare-fun f268 () S35)
(declare-fun f269 () S41)
(declare-fun f270 () S38)
(declare-fun f271 () S43)
(declare-fun f272 (S135 S13) S45)
(declare-fun f273 (S136 S7) S135)
(declare-fun f274 (S137 S45) S136)
(declare-fun f275 () S137)
(assert (not (= (not (= (f115 (f133 f134 f5) f135) (f115 (f133 f134 f5) (f33 (f34 f38 (f9 f10 f11)) f39)))) (not (= (f115 (f133 f134 f5) (f33 (f34 f38 (f9 f10 f11)) f39)) (f115 (f133 f134 f5) f135))))))
(assert (= (= (f115 (f133 f134 f5) f135) (f115 (f133 f134 f5) (f33 (f34 f38 (f9 f10 f11)) f39))) (= (f115 (f133 f134 f5) (f33 (f34 f38 (f9 f10 f11)) f39)) (f115 (f133 f134 f5) f135))))
(check-sat)
(exit)
